c Circuit-CNF generated by TG-PRO v1.0 (c) Huan Chen and Joao Marques-Silva
p cnf 765 1855
1 2 0
-1 -2 0
3 4 0
-3 -4 0
-5 6 0
-5 7 0
5 -6 -7 0
-8 9 0
-8 7 0
8 -9 -7 0
10 11 0
-10 -11 0
12 13 0
-12 -13 0
14 15 0
-14 -15 0
-16 17 0
-16 18 0
16 -17 -18 0
-19 20 0
-19 21 0
19 -20 -21 0
-22 23 0
-22 24 0
22 -23 -24 0
-25 26 0
-25 27 0
25 -26 -27 0
-28 29 0
-28 30 0
28 -29 -30 0
-31 32 0
-31 33 0
31 -32 -33 0
-34 35 0
-34 36 0
34 -35 -36 0
-37 38 0
-37 39 0
37 -38 -39 0
-40 41 0
-40 42 0
40 -41 -42 0
-43 44 0
-43 45 0
43 -44 -45 0
-46 47 0
-46 48 0
46 -47 -48 0
-49 50 0
-49 51 0
49 -50 -51 0
-52 53 0
-52 54 0
52 -53 -54 0
-55 56 0
-55 57 0
55 -56 -57 0
-58 59 0
-58 60 0
58 -59 -60 0
-61 62 0
-61 63 0
61 -62 -63 0
-64 65 0
-64 66 0
64 -65 -66 0
-67 68 0
-67 69 0
67 -68 -69 0
-70 71 0
-70 72 0
70 -71 -72 0
-73 74 0
-73 75 0
73 -74 -75 0
-76 77 0
-76 78 0
76 -77 -78 0
-79 80 0
-79 81 0
79 -80 -81 0
-82 83 0
-82 84 0
82 -83 -84 0
-85 86 0
-85 87 0
85 -86 -87 0
-88 89 0
-88 90 0
88 -89 -90 0
-91 92 0
-91 93 0
91 -92 -93 0
-94 95 0
-94 96 0
94 -95 -96 0
-97 98 0
-97 99 0
97 -98 -99 0
-100 101 0
-100 102 0
100 -101 -102 0
-103 104 0
-103 105 0
103 -104 -105 0
-106 107 0
-106 108 0
106 -107 -108 0
-109 110 0
-109 111 0
109 -110 -111 0
-112 113 0
-112 114 0
112 -113 -114 0
-115 116 0
-115 117 0
115 -116 -117 0
-118 119 0
-118 120 0
118 -119 -120 0
-121 122 0
-121 123 0
121 -122 -123 0
-124 125 0
-124 126 0
124 -125 -126 0
-127 128 0
-127 129 0
127 -128 -129 0
-130 131 0
-130 132 0
130 -131 -132 0
-133 134 0
-133 135 0
133 -134 -135 0
-136 137 0
-136 138 0
136 -137 -138 0
-139 140 0
-139 141 0
139 -140 -141 0
-142 143 0
-142 144 0
142 -143 -144 0
-145 146 0
-145 147 0
145 -146 -147 0
-148 149 0
-148 150 0
148 -149 -150 0
-151 152 0
-151 153 0
151 -152 -153 0
-154 155 0
-154 156 0
154 -155 -156 0
-157 158 0
-157 159 0
157 -158 -159 0
-160 161 0
-160 162 0
160 -161 -162 0
-163 164 0
-163 165 0
163 -164 -165 0
-166 167 0
-166 168 0
166 -167 -168 0
-169 170 0
-169 171 0
169 -170 -171 0
-172 173 0
-172 174 0
172 -173 -174 0
-175 176 0
-175 177 0
175 -176 -177 0
-178 179 0
-178 180 0
178 -179 -180 0
-181 182 0
-181 183 0
181 -182 -183 0
-184 185 0
-184 186 0
184 -185 -186 0
-187 188 0
-187 189 0
187 -188 -189 0
-190 191 0
-190 192 0
190 -191 -192 0
-193 194 0
-193 195 0
193 -194 -195 0
-196 197 0
-196 198 0
196 -197 -198 0
-199 200 0
-199 201 0
199 -200 -201 0
-202 203 0
-202 204 0
202 -203 -204 0
-205 206 0
-205 207 0
205 -206 -207 0
-208 209 0
-208 210 0
208 -209 -210 0
-211 212 0
-211 213 0
211 -212 -213 0
214 -215 0
214 -216 0
-214 215 216 0
217 -218 0
217 -216 0
-217 218 216 0
219 -220 0
219 -216 0
-219 220 216 0
-221 222 0
-221 223 0
221 -222 -223 0
-224 225 0
-224 226 0
224 -225 -226 0
-227 228 0
-227 229 0
227 -228 -229 0
230 231 0
230 232 0
-230 -231 -232 0
13 230 0
-13 -230 0
-233 -234 0
-233 -235 0
233 234 235 0
15 233 0
-15 -233 0
236 237 0
-236 -237 0
18 236 0
-18 -236 0
238 239 0
-238 -239 0
21 236 0
-21 -236 0
24 236 0
-24 -236 0
27 236 0
-27 -236 0
240 241 0
-240 -241 0
30 236 0
-30 -236 0
33 236 0
-33 -236 0
242 243 0
-242 -243 0
36 236 0
-36 -236 0
39 236 0
-39 -236 0
42 236 0
-42 -236 0
45 236 0
-45 -236 0
48 236 0
-48 -236 0
51 236 0
-51 -236 0
50 244 0
-50 -244 0
245 246 0
-245 -246 0
247 248 0
-247 -248 0
249 247 0
-249 -247 0
54 236 0
-54 -236 0
250 251 0
-250 -251 0
57 236 0
-57 -236 0
60 236 0
-60 -236 0
252 253 0
-252 -253 0
63 236 0
-63 -236 0
254 255 0
-254 -255 0
66 236 0
-66 -236 0
256 257 0
-256 -257 0
69 236 0
-69 -236 0
-258 259 0
-258 260 0
258 -259 -260 0
72 258 0
-72 -258 0
75 258 0
-75 -258 0
78 258 0
-78 -258 0
81 258 0
-81 -258 0
84 258 0
-84 -258 0
261 262 0
261 263 0
-261 -262 -263 0
264 261 0
-264 -261 0
87 236 0
-87 -236 0
265 -266 0
265 -267 0
-265 266 267 0
268 265 0
-268 -265 0
90 236 0
-90 -236 0
269 265 0
-269 -265 0
93 236 0
-93 -236 0
270 265 0
-270 -265 0
96 236 0
-96 -236 0
271 265 0
-271 -265 0
272 -273 0
272 -7 0
-272 273 7 0
274 272 0
-274 -272 0
275 272 0
-275 -272 0
267 276 0
-267 -276 0
277 267 0
-277 -267 0
278 267 0
-278 -267 0
7 279 0
-7 -279 0
280 7 0
-280 -7 0
281 272 0
-281 -272 0
282 -236 0
282 -283 0
-282 236 283 0
99 282 0
-99 -282 0
102 282 0
-102 -282 0
105 282 0
-105 -282 0
284 -236 0
284 -266 0
-284 236 266 0
108 284 0
-108 -284 0
111 284 0
-111 -284 0
114 284 0
-114 -284 0
285 -236 0
285 -286 0
-285 236 286 0
117 285 0
-117 -285 0
120 285 0
-120 -285 0
123 236 0
-123 -236 0
287 -236 0
287 -288 0
-287 236 288 0
126 287 0
-126 -287 0
129 287 0
-129 -287 0
132 236 0
-132 -236 0
135 236 0
-135 -236 0
138 236 0
-138 -236 0
289 290 0
-289 -290 0
141 236 0
-141 -236 0
291 292 0
-291 -292 0
144 236 0
-144 -236 0
293 -294 0
293 -295 0
-293 294 295 0
296 293 0
-296 -293 0
9 297 0
9 298 0
-9 -297 -298 0
147 9 0
-147 -9 0
150 9 0
-150 -9 0
153 9 0
-153 -9 0
156 9 0
-156 -9 0
297 236 0
-297 -236 0
299 -300 0
299 -236 0
-299 300 236 0
301 299 0
-301 -299 0
302 299 0
-302 -299 0
303 299 0
-303 -299 0
304 305 0
-304 -305 0
306 304 0
-306 -304 0
307 304 0
-307 -304 0
308 304 0
-308 -304 0
-309 310 0
-309 311 0
309 -310 -311 0
168 309 0
-168 -309 0
171 309 0
-171 -309 0
174 309 0
-174 -309 0
177 309 0
-177 -309 0
180 309 0
-180 -309 0
312 -313 0
312 -236 0
-312 313 236 0
314 312 0
-314 -312 0
315 312 0
-315 -312 0
316 312 0
-316 -312 0
317 312 0
-317 -312 0
195 309 0
-195 -309 0
-318 -319 0
-318 -295 0
318 319 295 0
320 318 0
-320 -318 0
321 322 0
321 323 0
-321 -322 -323 0
324 321 0
-324 -321 0
-325 326 0
-325 327 0
325 -326 -327 0
328 325 0
-328 -325 0
329 312 0
-329 -312 0
330 312 0
-330 -312 0
331 332 0
-331 -332 0
298 333 0
298 334 0
-298 -333 -334 0
335 298 0
-335 -298 0
336 7 0
-336 -7 0
337 7 0
-337 -7 0
338 7 0
-338 -7 0
339 7 0
-339 -7 0
340 7 0
-340 -7 0
341 7 0
-341 -7 0
342 7 0
-342 -7 0
343 7 0
-343 -7 0
344 7 0
-344 -7 0
345 7 0
-345 -7 0
204 236 0
-204 -236 0
203 346 0
-203 -346 0
347 203 0
-347 -203 0
346 348 0
-346 -348 0
349 350 0
-349 -350 0
207 236 0
-207 -236 0
351 352 0
-351 -352 0
353 351 0
-353 -351 0
210 236 0
-210 -236 0
354 351 0
-354 -351 0
213 236 0
-213 -236 0
355 351 0
-355 -351 0
352 356 0
-352 -356 0
357 358 0
-357 -358 0
359 357 0
-359 -357 0
360 357 0
-360 -357 0
361 357 0
-361 -357 0
358 362 0
-358 -362 0
363 364 0
-363 -364 0
11 363 0
-11 -363 0
223 236 0
-223 -236 0
226 236 0
-226 -236 0
229 236 0
-229 -236 0
365 363 0
-365 -363 0
366 367 0
-366 -367 0
368 366 0
-368 -366 0
369 370 0
-369 -370 0
371 369 0
-371 -369 0
372 373 0
-372 -373 0
374 372 0
-374 -372 0
375 376 0
-375 -376 0
377 375 0
-377 -375 0
378 379 0
-378 -379 0
380 378 0
-380 -378 0
381 382 0
-381 -382 0
383 381 0
-383 -381 0
384 385 0
-384 -385 0
386 384 0
-386 -384 0
387 388 0
-387 -388 0
389 387 0
-389 -387 0
390 391 0
-390 -391 0
392 390 0
-392 -390 0
393 394 0
-393 -394 0
395 393 0
-395 -393 0
396 397 0
-396 -397 0
398 396 0
-398 -396 0
2 399 0
-2 -399 0
400 401 0
-400 -401 0
402 400 0
-402 -400 0
4 403 0
-4 -403 0
404 -405 0
404 -7 0
-404 405 7 0
406 -383 0
406 -340 0
-406 383 340 0
-407 404 0
-407 406 0
407 -404 -406 0
408 -409 0
408 -7 0
-408 409 7 0
410 -386 0
410 -341 0
-410 386 341 0
-411 408 0
-411 410 0
411 -408 -410 0
412 -413 0
412 -7 0
-412 413 7 0
414 -389 0
414 -342 0
-414 389 342 0
-415 412 0
-415 414 0
415 -412 -414 0
416 -417 0
416 -7 0
-416 417 7 0
418 -392 0
418 -343 0
-418 392 343 0
-419 416 0
-419 418 0
419 -416 -418 0
420 -421 0
420 -7 0
-420 421 7 0
422 -395 0
422 -344 0
-422 395 344 0
-423 420 0
-423 422 0
423 -420 -422 0
17 424 0
17 425 0
-17 -424 -425 0
-20 -426 0
-20 -427 0
20 426 427 0
-428 429 0
-428 238 0
428 -429 -238 0
-427 428 0
-427 430 0
427 -428 -430 0
-23 -431 0
-23 -432 0
23 431 432 0
-433 428 0
-433 430 0
433 -428 -430 0
-432 433 0
-432 434 0
432 -433 -434 0
26 435 0
26 436 0
-26 -435 -436 0
-29 -437 0
-29 -438 0
29 437 438 0
-439 440 0
-439 240 0
439 -440 -240 0
-438 439 0
-438 441 0
438 -439 -441 0
429 442 0
429 443 0
-429 -442 -443 0
-440 433 0
-440 434 0
440 -433 -434 0
32 444 0
32 445 0
-32 -444 -445 0
-35 -446 0
-35 -447 0
35 446 447 0
-448 449 0
-448 242 0
448 -449 -242 0
-447 448 0
-447 450 0
447 -448 -450 0
-38 -451 0
-38 -452 0
38 451 452 0
-453 448 0
-453 450 0
453 -448 -450 0
-452 453 0
-452 454 0
452 -453 -454 0
-41 -455 0
-41 -456 0
41 455 456 0
-457 453 0
-457 454 0
457 -453 -454 0
-456 457 0
-456 458 0
456 -457 -458 0
-44 -459 0
-44 -460 0
44 459 460 0
-461 457 0
-461 458 0
461 -457 -458 0
-460 461 0
-460 462 0
460 -461 -462 0
47 463 0
47 464 0
-47 -463 -464 0
449 -247 0
449 -465 0
-449 247 465 0
-466 461 0
-466 462 0
466 -461 -462 0
-467 466 0
-467 246 0
467 -466 -246 0
468 -245 0
468 -247 0
-468 245 247 0
469 -244 0
469 -249 0
-469 244 249 0
-470 468 0
-470 469 0
470 -468 -469 0
53 471 0
53 472 0
-53 -471 -472 0
-56 -473 0
-56 -474 0
56 473 474 0
-475 476 0
-475 250 0
475 -476 -250 0
-474 475 0
-474 477 0
474 -475 -477 0
-59 -478 0
-59 -479 0
59 478 479 0
-480 475 0
-480 477 0
480 -475 -477 0
-479 480 0
-479 253 0
479 -480 -253 0
476 -267 0
476 -481 0
-476 267 481 0
62 482 0
62 483 0
-62 -482 -483 0
65 484 0
65 485 0
-65 -484 -485 0
-68 -486 0
-68 -487 0
68 486 487 0
-488 489 0
-488 256 0
488 -489 -256 0
-487 488 0
-487 490 0
487 -488 -490 0
491 -247 0
491 -492 0
-491 247 492 0
-489 491 0
-489 254 0
489 -491 -254 0
-493 480 0
-493 253 0
493 -480 -253 0
-494 252 0
-494 480 0
494 -252 -480 0
-465 439 0
-465 441 0
465 -439 -441 0
-492 466 0
-492 245 0
492 -466 -245 0
-481 488 0
-481 490 0
481 -488 -490 0
-288 283 0
-288 495 0
288 -283 -495 0
-496 288 0
-496 497 0
496 -288 -497 0
-71 -498 0
-71 -499 0
71 498 499 0
-500 -501 0
-500 -233 0
500 501 233 0
-499 500 0
-499 502 0
499 -500 -502 0
-74 -503 0
-74 -504 0
74 503 504 0
-505 500 0
-505 502 0
505 -500 -502 0
-504 505 0
-504 506 0
504 -505 -506 0
-77 -507 0
-77 -508 0
77 507 508 0
-509 505 0
-509 506 0
509 -505 -506 0
-508 509 0
-508 510 0
508 -509 -510 0
-80 -511 0
-80 -512 0
80 511 512 0
-513 509 0
-513 510 0
513 -509 -510 0
-512 513 0
-512 514 0
512 -513 -514 0
259 -9 0
259 -7 0
-259 9 7 0
260 -371 0
260 -338 0
-260 371 338 0
-83 -515 0
-83 -516 0
83 515 516 0
-517 513 0
-517 514 0
517 -513 -514 0
-516 517 0
-516 518 0
516 -517 -518 0
519 -407 0
519 -502 0
-519 407 502 0
520 521 0
520 522 0
-520 -521 -522 0
-523 519 0
-523 520 0
523 -519 -520 0
524 -411 0
524 -506 0
-524 411 506 0
525 -526 0
525 -523 0
-525 526 523 0
-527 524 0
-527 525 0
527 -524 -525 0
528 -415 0
528 -510 0
-528 415 510 0
529 -530 0
529 -527 0
-529 530 527 0
-531 528 0
-531 529 0
531 -528 -529 0
532 -419 0
532 -514 0
-532 419 514 0
533 -534 0
533 -531 0
-533 534 531 0
-535 532 0
-535 533 0
535 -532 -533 0
-86 536 0
-86 537 0
86 -536 -537 0
536 -538 0
536 -265 0
-536 538 265 0
537 -380 0
537 -268 0
-537 380 268 0
-89 539 0
-89 540 0
89 -539 -540 0
539 -541 0
539 -265 0
-539 541 265 0
540 -538 0
540 -269 0
-540 538 269 0
-92 542 0
-92 543 0
92 -542 -543 0
542 -544 0
542 -265 0
-542 544 265 0
543 -541 0
543 -270 0
-543 541 270 0
-95 545 0
-95 546 0
95 -545 -546 0
545 -547 0
545 -265 0
-545 547 265 0
546 -544 0
546 -271 0
-546 544 271 0
232 548 0
232 549 0
-232 -548 -549 0
-234 232 0
-234 365 0
234 -232 -365 0
-550 230 0
-550 365 0
550 -230 -365 0
551 -493 0
551 -272 0
-551 493 272 0
552 -491 0
552 -274 0
-552 491 274 0
-553 551 0
-553 552 0
553 -551 -552 0
554 -496 0
554 -267 0
-554 496 267 0
555 -556 0
555 -277 0
-555 556 277 0
-557 554 0
-557 555 0
557 -554 -555 0
558 -497 0
558 -267 0
-558 497 267 0
559 -560 0
559 -278 0
-559 560 278 0
-561 558 0
-561 559 0
561 -558 -559 0
562 -267 0
562 -556 0
-562 267 556 0
-283 562 0
-283 563 0
283 -562 -563 0
-98 -564 0
-98 -565 0
98 564 565 0
-565 562 0
-565 566 0
565 -562 -566 0
-101 -567 0
-101 -568 0
101 567 568 0
-569 562 0
-569 566 0
569 -562 -566 0
-568 569 0
-568 570 0
568 -569 -570 0
-104 -571 0
-104 -572 0
104 571 572 0
-573 569 0
-573 570 0
573 -569 -570 0
-572 573 0
-572 563 0
572 -573 -563 0
-266 574 0
-266 575 0
266 -574 -575 0
-107 -576 0
-107 -577 0
107 576 577 0
-577 491 0
-577 578 0
577 -491 -578 0
-110 -579 0
-110 -580 0
110 579 580 0
-581 491 0
-581 578 0
581 -491 -578 0
-580 581 0
-580 582 0
580 -581 -582 0
-113 -583 0
-113 -584 0
113 583 584 0
-585 581 0
-585 582 0
585 -581 -582 0
-584 585 0
-584 575 0
584 -585 -575 0
-116 -586 0
-116 -587 0
116 586 587 0
-587 553 0
-587 588 0
587 -553 -588 0
-119 -589 0
-119 -590 0
119 589 590 0
-591 553 0
-591 588 0
591 -553 -588 0
-590 591 0
-590 592 0
590 -591 -592 0
-122 -593 0
-122 -594 0
122 593 594 0
-286 553 0
-286 592 0
286 -553 -592 0
-594 286 0
-594 560 0
594 -286 -560 0
-556 286 0
-556 560 0
556 -286 -560 0
-125 -595 0
-125 -596 0
125 595 596 0
-596 283 0
-596 597 0
596 -283 -597 0
-128 -598 0
-128 -599 0
128 598 599 0
-600 283 0
-600 597 0
600 -283 -597 0
-599 600 0
-599 495 0
599 -600 -495 0
-131 -601 0
-131 -602 0
131 601 602 0
-602 288 0
-602 497 0
602 -288 -497 0
603 -494 0
603 -272 0
-603 494 272 0
604 -605 0
604 -281 0
-604 605 281 0
-606 603 0
-606 604 0
606 -603 -604 0
607 -253 0
607 -272 0
-607 253 272 0
608 -470 0
608 -275 0
-608 470 275 0
-319 607 0
-319 608 0
319 -607 -608 0
609 -561 0
609 -7 0
-609 561 7 0
610 -244 0
610 -280 0
-610 244 280 0
-611 609 0
-611 610 0
611 -609 -610 0
134 -319 0
134 -305 0
-134 319 305 0
-137 -612 0
-137 -613 0
137 612 613 0
-612 335 0
-612 304 0
612 -335 -304 0
140 -335 0
140 -290 0
-140 335 290 0
-143 -614 0
-143 -615 0
143 614 615 0
-614 335 0
-614 289 0
614 -335 -289 0
-273 616 0
-273 402 0
273 -616 -402 0
-146 -617 0
-146 -618 0
146 617 618 0
619 -557 0
619 -7 0
-619 557 7 0
-618 619 0
-618 620 0
618 -619 -620 0
-149 -621 0
-149 -622 0
149 621 622 0
-623 619 0
-623 620 0
623 -619 -620 0
-622 623 0
-622 624 0
622 -623 -624 0
-152 -625 0
-152 -626 0
152 625 626 0
-627 623 0
-627 624 0
627 -623 -624 0
-626 627 0
-626 628 0
626 -627 -628 0
-155 -629 0
-155 -630 0
155 629 630 0
-631 627 0
-631 628 0
631 -627 -628 0
-630 631 0
-630 632 0
630 -631 -632 0
633 -392 0
633 -304 0
-633 392 304 0
634 -383 0
634 -306 0
-634 383 306 0
-635 633 0
-635 634 0
635 -633 -634 0
636 -395 0
636 -304 0
-636 395 304 0
637 -386 0
637 -307 0
-637 386 307 0
-638 636 0
-638 637 0
638 -636 -637 0
639 -398 0
639 -304 0
-639 398 304 0
640 -389 0
640 -308 0
-640 389 308 0
-641 639 0
-641 640 0
641 -639 -640 0
158 -642 0
158 -299 0
-158 642 299 0
159 -635 0
159 -301 0
-159 635 301 0
161 -643 0
161 -299 0
-161 643 299 0
162 -638 0
162 -302 0
-162 638 302 0
164 -644 0
164 -299 0
-164 644 299 0
165 -641 0
165 -303 0
-165 641 303 0
-167 -645 0
-167 -646 0
167 645 646 0
-647 606 0
-647 295 0
647 -606 -295 0
-646 647 0
-646 648 0
646 -647 -648 0
-170 -649 0
-170 -650 0
170 649 650 0
-651 647 0
-651 648 0
651 -647 -648 0
-650 651 0
-650 652 0
650 -651 -652 0
-173 -653 0
-173 -654 0
173 653 654 0
-655 651 0
-655 652 0
655 -651 -652 0
-654 655 0
-654 656 0
654 -655 -656 0
-176 -657 0
-176 -658 0
176 657 658 0
-659 655 0
-659 656 0
659 -655 -656 0
-658 659 0
-658 660 0
658 -659 -660 0
-179 -661 0
-179 -662 0
179 661 662 0
-663 659 0
-663 660 0
663 -659 -660 0
-662 663 0
-662 664 0
662 -663 -664 0
182 -665 0
182 -312 0
-182 665 312 0
183 -368 0
183 -314 0
-183 368 314 0
185 -666 0
185 -312 0
-185 666 312 0
186 -371 0
186 -315 0
-186 371 315 0
188 -667 0
188 -312 0
-188 667 312 0
189 -374 0
189 -316 0
-189 374 316 0
191 -668 0
191 -312 0
-191 668 312 0
192 -377 0
192 -317 0
-192 377 317 0
310 -9 0
310 -7 0
-310 9 7 0
311 -377 0
311 -339 0
-311 377 339 0
194 -669 0
194 -647 0
-194 669 647 0
670 -294 0
670 -318 0
-670 294 318 0
-669 670 0
-669 320 0
669 -670 -320 0
326 -331 0
326 -7 0
-326 331 7 0
327 -374 0
327 -337 0
-327 374 337 0
295 -671 0
295 -672 0
-295 671 672 0
197 -673 0
197 -312 0
-197 673 312 0
198 -357 0
198 -329 0
-198 357 329 0
200 -674 0
200 -312 0
-200 674 312 0
201 -351 0
201 -330 0
-201 351 330 0
675 -293 0
675 -7 0
-675 293 7 0
676 -398 0
676 -345 0
-676 398 345 0
-677 675 0
-677 676 0
677 -675 -676 0
678 -273 0
678 -7 0
-678 273 7 0
679 -368 0
679 -336 0
-679 368 336 0
-680 678 0
-680 679 0
680 -678 -679 0
-681 465 0
-681 349 0
681 -465 -349 0
-682 492 0
-682 683 0
682 -492 -683 0
-684 481 0
-684 685 0
684 -481 -685 0
-686 496 0
-686 687 0
686 -496 -687 0
-300 279 0
-300 9 0
300 -279 -9 0
-313 276 0
-313 9 0
313 -276 -9 0
-206 688 0
-206 689 0
206 -688 -689 0
688 -683 0
688 -351 0
-688 683 351 0
689 -349 0
689 -353 0
-689 349 353 0
-209 690 0
-209 691 0
209 -690 -691 0
690 -685 0
690 -351 0
-690 685 351 0
691 -683 0
691 -354 0
-691 683 354 0
-212 692 0
-212 693 0
212 -692 -693 0
692 -687 0
692 -351 0
-692 687 351 0
693 -685 0
693 -355 0
-693 685 355 0
694 -7 0
694 -357 0
-694 7 357 0
-695 694 0
-695 359 0
695 -694 -359 0
696 -267 0
696 -357 0
-696 267 357 0
697 -7 0
697 -360 0
-697 7 360 0
-698 696 0
-698 697 0
698 -696 -697 0
699 -247 0
699 -357 0
-699 247 357 0
700 -267 0
700 -361 0
-700 267 361 0
-701 699 0
-701 700 0
701 -699 -700 0
-6 -702 0
-6 -686 0
6 702 686 0
222 703 0
222 704 0
-222 -703 -704 0
-225 -705 0
-225 -706 0
225 705 706 0
-705 351 0
-705 687 0
705 -351 -687 0
-228 -707 0
-228 -321 0
228 707 321 0
425 -429 0
425 -238 0
-425 429 238 0
436 -440 0
436 -240 0
-436 440 240 0
445 -449 0
445 -242 0
-445 449 242 0
464 -466 0
464 -245 0
-464 466 245 0
605 -247 0
605 -467 0
-605 247 467 0
472 -476 0
472 -250 0
-472 476 250 0
483 -491 0
483 -254 0
-483 491 254 0
485 -489 0
485 -256 0
-485 489 256 0
708 709 0
708 710 0
-708 -709 -710 0
704 -680 0
704 -708 0
-704 680 708 0
526 711 0
526 712 0
-526 -711 -712 0
530 713 0
530 714 0
-530 -713 -714 0
534 715 0
534 716 0
-534 -715 -716 0
442 -423 0
442 -518 0
-442 423 518 0
717 718 0
717 719 0
-717 -718 -719 0
443 -717 0
443 -535 0
-443 717 535 0
522 -502 0
522 -407 0
-522 502 407 0
712 -506 0
712 -411 0
-712 506 411 0
714 -510 0
714 -415 0
-714 510 415 0
716 -514 0
716 -419 0
-716 514 419 0
719 -518 0
719 -423 0
-719 518 423 0
720 -721 0
720 -538 0
-720 721 538 0
548 -720 0
548 -365 0
-548 720 365 0
501 722 0
501 538 0
-501 -722 -538 0
231 -501 0
231 -365 0
-231 501 365 0
723 -642 0
723 -620 0
-723 642 620 0
724 -643 0
724 -624 0
-724 643 624 0
725 -644 0
725 -628 0
-725 644 628 0
-726 -727 0
-726 -644 0
726 727 644 0
728 -726 0
728 -632 0
-728 726 632 0
671 729 0
671 730 0
-671 -729 -730 0
672 731 0
672 732 0
-672 -731 -732 0
733 -665 0
733 -648 0
-733 665 648 0
734 -666 0
734 -652 0
-734 666 652 0
735 -667 0
735 -656 0
-735 667 656 0
736 -668 0
736 -660 0
-736 668 660 0
-737 -738 0
-737 -668 0
737 738 668 0
739 -737 0
739 -664 0
-739 737 664 0
322 -674 0
322 -325 0
-322 674 325 0
323 -328 0
323 -673 0
-323 328 673 0
405 648 0
405 324 0
-405 -648 -324 0
409 652 0
409 324 0
-409 -652 -324 0
413 656 0
413 324 0
-413 -656 -324 0
417 660 0
417 324 0
-417 -660 -324 0
421 664 0
421 324 0
-421 -664 -324 0
-215 -695 0
-215 -740 0
215 695 740 0
216 -347 0
216 -236 0
-216 347 236 0
-218 -698 0
-218 -740 0
218 698 740 0
-220 -701 0
-220 -740 0
220 701 740 0
424 429 0
424 238 0
-424 -429 -238 0
435 440 0
435 240 0
-435 -440 -240 0
444 449 0
444 242 0
-444 -449 -242 0
463 466 0
463 245 0
-463 -466 -245 0
471 476 0
471 250 0
-471 -476 -250 0
482 491 0
482 254 0
-482 -491 -254 0
484 489 0
484 256 0
-484 -489 -256 0
703 680 0
703 611 0
-703 -680 -611 0
710 319 0
710 677 0
-710 -319 -677 0
741 261 0
741 429 0
-741 -261 -429 0
742 743 0
742 319 0
-742 -743 -319 0
521 502 0
521 407 0
-521 -502 -407 0
711 506 0
711 411 0
-711 -506 -411 0
713 510 0
713 415 0
-713 -510 -415 0
715 514 0
715 419 0
-715 -514 -419 0
718 518 0
718 423 0
-718 -518 -423 0
-262 -744 0
-262 -530 0
262 744 530 0
-263 -526 0
-263 -520 0
263 526 520 0
745 642 0
745 620 0
-745 -642 -620 0
746 745 0
746 723 0
-746 -745 -723 0
747 643 0
747 624 0
-747 -643 -624 0
748 747 0
748 724 0
-748 -747 -724 0
749 644 0
749 628 0
-749 -644 -628 0
750 749 0
750 725 0
-750 -749 -725 0
751 726 0
751 632 0
-751 -726 -632 0
334 751 0
334 728 0
-334 -751 -728 0
752 753 0
752 733 0
-752 -753 -733 0
754 755 0
754 734 0
-754 -755 -734 0
730 756 0
730 735 0
-730 -756 -735 0
731 757 0
731 736 0
-731 -757 -736 0
732 758 0
732 739 0
-732 -758 -739 0
753 665 0
753 648 0
-753 -665 -648 0
755 666 0
755 652 0
-755 -666 -652 0
756 667 0
756 656 0
-756 -667 -656 0
757 668 0
757 660 0
-757 -668 -660 0
758 737 0
758 664 0
-758 -737 -664 0
707 319 0
707 294 0
-707 -319 -294 0
-426 -428 0
-426 -430 0
426 428 430 0
-431 -433 0
-431 -434 0
431 433 434 0
-437 -439 0
-437 -441 0
437 439 441 0
-446 -448 0
-446 -450 0
446 448 450 0
-451 -453 0
-451 -454 0
451 453 454 0
-455 -457 0
-455 -458 0
455 457 458 0
-459 -461 0
-459 -462 0
459 461 462 0
-473 -475 0
-473 -477 0
473 475 477 0
-478 -480 0
-478 -253 0
478 480 253 0
-486 -488 0
-486 -490 0
486 488 490 0
-498 -500 0
-498 -502 0
498 500 502 0
-503 -505 0
-503 -506 0
503 505 506 0
-507 -509 0
-507 -510 0
507 509 510 0
-511 -513 0
-511 -514 0
511 513 514 0
-515 -517 0
-515 -518 0
515 517 518 0
-235 -550 0
-235 -759 0
235 550 759 0
-564 -562 0
-564 -566 0
564 562 566 0
-567 -569 0
-567 -570 0
567 569 570 0
-571 -573 0
-571 -563 0
571 573 563 0
-576 -491 0
-576 -578 0
576 491 578 0
-579 -581 0
-579 -582 0
579 581 582 0
-583 -585 0
-583 -575 0
583 585 575 0
-586 -553 0
-586 -588 0
586 553 588 0
-589 -591 0
-589 -592 0
589 591 592 0
-593 -286 0
-593 -560 0
593 286 560 0
-595 -283 0
-595 -597 0
595 283 597 0
-598 -600 0
-598 -495 0
598 600 495 0
-601 -288 0
-601 -497 0
601 288 497 0
-613 -335 0
-613 -332 0
613 335 332 0
-615 -335 0
-615 -292 0
615 335 292 0
-617 -619 0
-617 -620 0
617 619 620 0
-621 -623 0
-621 -624 0
621 623 624 0
-625 -627 0
-625 -628 0
625 627 628 0
-629 -631 0
-629 -632 0
629 631 632 0
-645 -647 0
-645 -648 0
645 647 648 0
-649 -651 0
-649 -652 0
649 651 652 0
-653 -655 0
-653 -656 0
653 655 656 0
-657 -659 0
-657 -660 0
657 659 660 0
-661 -663 0
-661 -664 0
661 663 664 0
-740 -347 0
-740 -760 0
740 347 760 0
-706 -351 0
-706 -350 0
706 351 350 0
-761 746 0
-761 748 0
761 -746 -748 0
-333 761 0
-333 750 0
333 -761 -750 0
-574 491 0
-574 578 0
574 -491 -578 0
-616 296 0
-616 291 0
616 -296 -291 0
762 -681 0
762 -682 0
-762 681 682 0
702 -762 0
702 -684 0
-702 762 684 0
-709 429 0
-709 742 0
709 -429 -742 0
763 -547 0
763 -544 0
-763 547 544 0
721 -763 0
721 -541 0
-721 763 541 0
-764 547 0
-764 544 0
764 -547 -544 0
-722 764 0
-722 541 0
722 -764 -541 0
727 -642 0
727 -643 0
-727 642 643 0
-729 752 0
-729 754 0
729 -752 -754 0
765 -665 0
765 -666 0
-765 665 666 0
738 -765 0
738 -667 0
-738 765 667 0
-743 264 0
-743 741 0
743 -264 -741 0
744 -717 0
744 -534 0
-744 717 534 0
